# Solution for model micodag
# Objective value = 8.3645759606369730e+00
s_0_1 0
s_1_0 0
s_0_2 0
s_2_0 0
s_1_2 3.8529689362313282e+00
s_2_1 0
s_2_3 0
s_3_2 0
s_2_5 0
s_5_2 3.8529689362313282e+00
s_3_4 0
s_4_3 0
s_3_5 0
s_5_3 6.3077316686408524e-01
s_3_6 0
s_6_3 0.591638434956614
s_4_5 0
s_5_4 0
s_4_6 0
s_6_4 5.8222151306414238e-01
s_4_7 0
s_7_4 3.2779774977980791e-01
s_5_6 0
s_6_5 0
s_5_7 0
s_7_5 0.572243789009816
s_5_8 0
s_8_5 4.0759962226732593e-01
s_6_7 0
s_7_6 0
s_6_8 0
s_8_6 3.8529689362313282e+00
s_7_8 0
s_8_7 3.3798108970114749e-01
s_0_0 1.9035492835323236e+00
s_1_1 1.5632671451808831e+00
s_2_2 3.8529689362313282e+00
s_3_3 9.4612078793127630e-01
s_4_4 0.656594866062429
s_5_5 1.9522710992416166e+00
s_6_6 3.8529689362313282e+00
s_7_7 9.4198257008962294e-01
s_8_8 9.3712554526400327e-01
Gamma_0_0 1.3796917349655768e+00
Gamma_0_1 0
Gamma_0_2 0
Gamma_0_3 0
Gamma_0_4 0
Gamma_0_5 0
Gamma_0_6 0
Gamma_0_7 0
Gamma_0_8 0
Gamma_1_0 0
Gamma_1_1 1.2503068204168459e+00
Gamma_1_2 8.9262605557452923e-01
Gamma_1_3 0
Gamma_1_4 0
Gamma_1_5 0
Gamma_1_6 0
Gamma_1_7 0
Gamma_1_8 0
Gamma_2_0 0
Gamma_2_1 0
Gamma_2_2 1.0431946200708770e+00
Gamma_2_3 0
Gamma_2_4 0
Gamma_2_5 0
Gamma_2_6 0
Gamma_2_7 0
Gamma_2_8 0
Gamma_3_0 0
Gamma_3_1 0
Gamma_3_2 0
Gamma_3_3 9.7268740504402362e-01
Gamma_3_4 0
Gamma_3_5 0
Gamma_3_6 0
Gamma_3_7 0
Gamma_3_8 0
Gamma_4_0 0
Gamma_4_1 0
Gamma_4_2 0
Gamma_4_3 0
Gamma_4_4 8.1030541529871869e-01
Gamma_4_5 0
Gamma_4_6 0
Gamma_4_7 0
Gamma_4_8 0
Gamma_5_0 0
Gamma_5_1 0
Gamma_5_2 -9.4391260992066062e-01
Gamma_5_3 -7.9421229332218590e-01
Gamma_5_4 0
Gamma_5_5 1.3972369517163568e+00
Gamma_5_6 0
Gamma_5_7 0
Gamma_5_8 0
Gamma_6_0 0
Gamma_6_1 0
Gamma_6_2 0
Gamma_6_3 -0.769180365685848
Gamma_6_4 7.6303441145478046e-01
Gamma_6_5 0
Gamma_6_6 9.6091618395135048e-01
Gamma_6_7 0
Gamma_6_8 0
Gamma_7_0 0
Gamma_7_1 0
Gamma_7_2 0
Gamma_7_3 0
Gamma_7_4 5.7253624320195540e-01
Gamma_7_5 7.5646796958616558e-01
Gamma_7_6 0
Gamma_7_7 9.7055786539990674e-01
Gamma_7_8 0
Gamma_8_0 0
Gamma_8_1 0
Gamma_8_2 0
Gamma_8_3 0
Gamma_8_4 0
Gamma_8_5 -6.3843529215365746e-01
Gamma_8_6 7.9626743671016387e-01
Gamma_8_7 5.8136141057103841e-01
Gamma_8_8 9.6805244964516424e-01
psi_0 0
psi_1 0
psi_2 3
psi_3 3
psi_4 2
psi_5 2
psi_6 1
psi_7 1
psi_8 0
g_0_0 0
g_0_1 0
g_0_2 0
g_0_3 0
g_0_4 0
g_0_5 0
g_0_6 0
g_0_7 0
g_0_8 0
g_1_0 0
g_1_1 0
g_1_2 1
g_1_3 0
g_1_4 0
g_1_5 0
g_1_6 0
g_1_7 0
g_1_8 0
g_2_0 0
g_2_1 0
g_2_2 0
g_2_3 0
g_2_4 0
g_2_5 0
g_2_6 0
g_2_7 0
g_2_8 0
g_3_0 0
g_3_1 0
g_3_2 0
g_3_3 0
g_3_4 0
g_3_5 0
g_3_6 0
g_3_7 0
g_3_8 0
g_4_0 0
g_4_1 0
g_4_2 0
g_4_3 0
g_4_4 0
g_4_5 0
g_4_6 0
g_4_7 0
g_4_8 0
g_5_0 0
g_5_1 0
g_5_2 1
g_5_3 1
g_5_4 0
g_5_5 0
g_5_6 0
g_5_7 0
g_5_8 0
g_6_0 0
g_6_1 0
g_6_2 0
g_6_3 1
g_6_4 1
g_6_5 0
g_6_6 0
g_6_7 0
g_6_8 0
g_7_0 0
g_7_1 0
g_7_2 0
g_7_3 0
g_7_4 1
g_7_5 1
g_7_6 0
g_7_7 0
g_7_8 0
g_8_0 0
g_8_1 0
g_8_2 0
g_8_3 0
g_8_4 0
g_8_5 1
g_8_6 1
g_8_7 1
g_8_8 0
T_0 -0.643720187512514
T_1 -4.4677795505641882e-01
T_2 -8.4575510072610882e-02
T_3 5.5385035278391115e-02
T_4 4.2068809291805564e-01
T_5 -6.6899336115578478e-01
T_6 7.9736182695853586e-02
T_7 5.9768507666532855e-02
T_8 6.4938019311398421e-02
